(set-info :original "/tmp/sea-ZcRokG/trex03_true-unreach-call_true-termination.pp.ms.o.bc")
(set-info :authors "SeaHorn v.0.1.0-rc3")
(declare-rel verifier.error (Bool Bool Bool ))
(declare-rel main@entry (Int Int ))
(declare-rel main@_bb (Int Bool Int Int Int Int ))
(declare-rel main@verifier.error.split ())
(declare-var main@%_22_0 Int )
(declare-var main@%_23_0 Bool )
(declare-var main@%_25_0 Int )
(declare-var main@%_18_0 Bool )
(declare-var main@%_19_0 Int )
(declare-var main@%not..i_0 Bool )
(declare-var main@%_20_0 Int )
(declare-var main@%x3.2.i_2 Int )
(declare-var main@%x2.2.i_2 Int )
(declare-var main@%x1.1.i_2 Int )
(declare-var main@%_14_0 Bool )
(declare-var main@%_32_0 Bool )
(declare-var main@%_27_0 Bool )
(declare-var main@%_28_0 Bool )
(declare-var main@%or.cond1.i_0 Bool )
(declare-var main@%_29_0 Bool )
(declare-var main@%..i_0 Bool )
(declare-var main@%_31_0 Bool )
(declare-var main@%notlhs.i_0 Bool )
(declare-var main@%notrhs.i_0 Bool )
(declare-var main@%or.cond.not.i_0 Bool )
(declare-var main@%_12_0 Bool )
(declare-var main@%or.cond2.i_0 Bool )
(declare-var main@%_0_0 Int )
(declare-var @__VERIFIER_nondet_uint_0 Int )
(declare-var main@%_2_0 Int )
(declare-var main@%_4_0 Int )
(declare-var main@%_6_0 Int )
(declare-var main@%_7_0 Bool )
(declare-var main@%_9_0 Int )
(declare-var main@%.sink.i_2 Bool )
(declare-var main@%c1.0.i_2 Int )
(declare-var @__VERIFIER_nondet_bool_0 Int )
(declare-var main@entry_0 Bool )
(declare-var main@%_1_0 Int )
(declare-var main@%_3_0 Int )
(declare-var main@%_5_0 Int )
(declare-var main@%_8_0 Int )
(declare-var main@%_10_0 Bool )
(declare-var main@_bb_0 Bool )
(declare-var main@%.sink.i_0 Bool )
(declare-var main@%c1.0.i_0 Int )
(declare-var main@%x3.0.i_0 Int )
(declare-var main@%x2.0.i_0 Int )
(declare-var main@%x1.0.i_0 Int )
(declare-var main@%.sink.i_1 Bool )
(declare-var main@%c1.0.i_1 Int )
(declare-var main@%x3.0.i_1 Int )
(declare-var main@%x2.0.i_1 Int )
(declare-var main@%x1.0.i_1 Int )
(declare-var main@_bb1_0 Bool )
(declare-var main@_bb2_0 Bool )
(declare-var main@%_16_0 Int )
(declare-var main@_bb3_0 Bool )
(declare-var main@%x3.1.i_0 Int )
(declare-var main@%x2.1.i_0 Int )
(declare-var main@_bb4_0 Bool )
(declare-var main@%x3.2.i_0 Int )
(declare-var main@%x2.2.i_0 Int )
(declare-var main@%x1.1.i_0 Int )
(declare-var main@%x3.2.i_1 Int )
(declare-var main@%x2.2.i_1 Int )
(declare-var main@%x1.1.i_1 Int )
(declare-var main@%_24_0 Int )
(declare-var main@%_26_0 Bool )
(declare-var main@_bb_1 Bool )
(declare-var main@%x3.0.i_2 Int )
(declare-var main@%x2.0.i_2 Int )
(declare-var main@%x1.0.i_2 Int )
(declare-var main@orig.main.exit_0 Bool )
(declare-var main@%_30_0 Int )
(declare-var main@precall_0 Bool )
(declare-var main@__VERIFIER_assert_0 Bool )
(declare-var main@_bb5_0 Bool )
(declare-var main@verifier.error_0 Bool )
(declare-var main@verifier.error.split_0 Bool )
(rule (verifier.error false false false))
(rule (verifier.error false true true))
(rule (verifier.error true false true))
(rule (verifier.error true true true))
(rule (main@entry @__VERIFIER_nondet_bool_0 @__VERIFIER_nondet_uint_0))
(rule (=> (and (main@entry @__VERIFIER_nondet_bool_0 @__VERIFIER_nondet_uint_0)
         true
         (= main@%_0_0 @__VERIFIER_nondet_uint_0)
         (= main@%_2_0 @__VERIFIER_nondet_uint_0)
         (= main@%_4_0 @__VERIFIER_nondet_uint_0)
         (= main@%_6_0 @__VERIFIER_nondet_bool_0)
         (= main@%_8_0 (ite main@%_7_0 1 0))
         (= main@%_9_0 @__VERIFIER_nondet_bool_0)
         (=> main@_bb_0 (and main@_bb_0 main@entry_0))
         main@_bb_0
         (=> (and main@_bb_0 main@entry_0) (= main@%.sink.i_0 main@%_10_0))
         (=> (and main@_bb_0 main@entry_0) (= main@%c1.0.i_0 main@%_8_0))
         (=> (and main@_bb_0 main@entry_0) (= main@%x3.0.i_0 main@%_5_0))
         (=> (and main@_bb_0 main@entry_0) (= main@%x2.0.i_0 main@%_3_0))
         (=> (and main@_bb_0 main@entry_0) (= main@%x1.0.i_0 main@%_1_0))
         (=> (and main@_bb_0 main@entry_0) (= main@%.sink.i_1 main@%.sink.i_0))
         (=> (and main@_bb_0 main@entry_0) (= main@%c1.0.i_1 main@%c1.0.i_0))
         (=> (and main@_bb_0 main@entry_0) (= main@%x3.0.i_1 main@%x3.0.i_0))
         (=> (and main@_bb_0 main@entry_0) (= main@%x2.0.i_1 main@%x2.0.i_0))
         (=> (and main@_bb_0 main@entry_0) (= main@%x1.0.i_1 main@%x1.0.i_0)))
    (main@_bb @__VERIFIER_nondet_bool_0
              main@%.sink.i_1
              main@%c1.0.i_1
              main@%x3.0.i_1
              main@%x2.0.i_1
              main@%x1.0.i_1)))
(rule (let ((a!1 (and (main@_bb @__VERIFIER_nondet_bool_0
                          main@%.sink.i_0
                          main@%c1.0.i_0
                          main@%x3.0.i_0
                          main@%x2.0.i_0
                          main@%x1.0.i_0)
                true
                (= main@%notlhs.i_0 (not (= main@%x1.0.i_0 0)))
                (= main@%notrhs.i_0 (not (= main@%x2.0.i_0 0)))
                (= main@%or.cond.not.i_0
                   (and main@%notrhs.i_0 main@%notlhs.i_0))
                (= main@%_12_0 (not (= main@%x3.0.i_0 0)))
                (= main@%or.cond2.i_0 (and main@%or.cond.not.i_0 main@%_12_0))
                (=> main@_bb1_0 (and main@_bb1_0 main@_bb_0))
                (=> (and main@_bb1_0 main@_bb_0) main@%or.cond2.i_0)
                (=> main@_bb1_0 (= main@%_14_0 (= main@%c1.0.i_0 0)))
                (=> main@_bb2_0 (and main@_bb2_0 main@_bb1_0))
                (=> (and main@_bb2_0 main@_bb1_0) (not main@%_14_0))
                (=> main@_bb2_0 (= main@%_16_0 (+ main@%x1.0.i_0 (- 1))))
                (=> main@_bb3_0 (and main@_bb3_0 main@_bb1_0))
                (=> (and main@_bb3_0 main@_bb1_0) main@%_14_0)
                (=> main@_bb3_0 (= main@%_18_0 (= main@%.sink.i_0 false)))
                (=> main@_bb3_0 (= main@%_19_0 (ite main@%_18_0 (- 1) 0)))
                (=> main@_bb3_0
                    (= main@%x3.1.i_0 (+ main@%x3.0.i_0 main@%_19_0)))
                (=> main@_bb3_0 (= main@%not..i_0 (xor main@%_18_0 true)))
                (=> main@_bb3_0 (= main@%_20_0 (ite main@%not..i_0 (- 1) 0)))
                (=> main@_bb3_0
                    (= main@%x2.1.i_0 (+ main@%x2.0.i_0 main@%_20_0)))
                (=> main@_bb4_0
                    (or (and main@_bb4_0 main@_bb3_0)
                        (and main@_bb4_0 main@_bb2_0)))
                (=> (and main@_bb4_0 main@_bb3_0)
                    (= main@%x3.2.i_0 main@%x3.1.i_0))
                (=> (and main@_bb4_0 main@_bb3_0)
                    (= main@%x2.2.i_0 main@%x2.1.i_0))
                (=> (and main@_bb4_0 main@_bb3_0)
                    (= main@%x1.1.i_0 main@%x1.0.i_0))
                (=> (and main@_bb4_0 main@_bb2_0)
                    (= main@%x3.2.i_1 main@%x3.0.i_0))
                (=> (and main@_bb4_0 main@_bb2_0)
                    (= main@%x2.2.i_1 main@%x2.0.i_0))
                (=> (and main@_bb4_0 main@_bb2_0)
                    (= main@%x1.1.i_1 main@%_16_0))
                (=> (and main@_bb4_0 main@_bb3_0)
                    (= main@%x3.2.i_2 main@%x3.2.i_0))
                (=> (and main@_bb4_0 main@_bb3_0)
                    (= main@%x2.2.i_2 main@%x2.2.i_0))
                (=> (and main@_bb4_0 main@_bb3_0)
                    (= main@%x1.1.i_2 main@%x1.1.i_0))
                (=> (and main@_bb4_0 main@_bb2_0)
                    (= main@%x3.2.i_2 main@%x3.2.i_1))
                (=> (and main@_bb4_0 main@_bb2_0)
                    (= main@%x2.2.i_2 main@%x2.2.i_1))
                (=> (and main@_bb4_0 main@_bb2_0)
                    (= main@%x1.1.i_2 main@%x1.1.i_1))
                (=> main@_bb4_0 (= main@%_22_0 @__VERIFIER_nondet_bool_0))
                (=> main@_bb4_0 (= main@%_24_0 (ite main@%_23_0 1 0)))
                (=> main@_bb4_0 (= main@%_25_0 @__VERIFIER_nondet_bool_0))
                (=> main@_bb_1 (and main@_bb_1 main@_bb4_0))
                main@_bb_1
                (=> (and main@_bb_1 main@_bb4_0)
                    (= main@%.sink.i_1 main@%_26_0))
                (=> (and main@_bb_1 main@_bb4_0) (= main@%c1.0.i_1 main@%_24_0))
                (=> (and main@_bb_1 main@_bb4_0)
                    (= main@%x3.0.i_1 main@%x3.2.i_2))
                (=> (and main@_bb_1 main@_bb4_0)
                    (= main@%x2.0.i_1 main@%x2.2.i_2))
                (=> (and main@_bb_1 main@_bb4_0)
                    (= main@%x1.0.i_1 main@%x1.1.i_2))
                (=> (and main@_bb_1 main@_bb4_0)
                    (= main@%.sink.i_2 main@%.sink.i_1))
                (=> (and main@_bb_1 main@_bb4_0)
                    (= main@%c1.0.i_2 main@%c1.0.i_1))
                (=> (and main@_bb_1 main@_bb4_0)
                    (= main@%x3.0.i_2 main@%x3.0.i_1))
                (=> (and main@_bb_1 main@_bb4_0)
                    (= main@%x2.0.i_2 main@%x2.0.i_1))
                (=> (and main@_bb_1 main@_bb4_0)
                    (= main@%x1.0.i_2 main@%x1.0.i_1)))))
  (=> a!1
      (main@_bb @__VERIFIER_nondet_bool_0
                main@%.sink.i_2
                main@%c1.0.i_2
                main@%x3.0.i_2
                main@%x2.0.i_2
                main@%x1.0.i_2))))
(rule (let ((a!1 (and (main@_bb @__VERIFIER_nondet_bool_0
                          main@%.sink.i_0
                          main@%c1.0.i_0
                          main@%x3.0.i_0
                          main@%x2.0.i_0
                          main@%x1.0.i_0)
                true
                (= main@%notlhs.i_0 (not (= main@%x1.0.i_0 0)))
                (= main@%notrhs.i_0 (not (= main@%x2.0.i_0 0)))
                (= main@%or.cond.not.i_0
                   (and main@%notrhs.i_0 main@%notlhs.i_0))
                (= main@%_12_0 (not (= main@%x3.0.i_0 0)))
                (= main@%or.cond2.i_0 (and main@%or.cond.not.i_0 main@%_12_0))
                (=> main@orig.main.exit_0
                    (and main@orig.main.exit_0 main@_bb_0))
                (=> (and main@orig.main.exit_0 main@_bb_0)
                    (not main@%or.cond2.i_0))
                (=> main@orig.main.exit_0 (= main@%_27_0 (= main@%x1.0.i_0 0)))
                (=> main@orig.main.exit_0 (= main@%_28_0 (= main@%x2.0.i_0 0)))
                (=> main@orig.main.exit_0
                    (= main@%or.cond1.i_0 (or main@%_27_0 main@%_28_0)))
                (=> main@orig.main.exit_0 (= main@%_29_0 (= main@%x3.0.i_0 0)))
                (=> main@orig.main.exit_0
                    (= main@%..i_0 (or main@%or.cond1.i_0 main@%_29_0)))
                (=> main@orig.main.exit_0 (= main@%_30_0 (ite main@%..i_0 1 0)))
                (=> main@orig.main.exit_0 (not main@%_31_0))
                (=> main@precall_0 (and main@precall_0 main@orig.main.exit_0))
                (=> main@__VERIFIER_assert_0
                    (and main@__VERIFIER_assert_0 main@precall_0))
                (=> main@__VERIFIER_assert_0 (= main@%_32_0 (= main@%_30_0 0)))
                (=> main@__VERIFIER_assert_0 main@%_32_0)
                (=> main@_bb5_0 (and main@_bb5_0 main@__VERIFIER_assert_0))
                (=> main@verifier.error_0
                    (and main@verifier.error_0 main@_bb5_0))
                (=> main@verifier.error.split_0
                    (and main@verifier.error.split_0 main@verifier.error_0))
                main@verifier.error.split_0)))
  (=> a!1 main@verifier.error.split)))
(query main@verifier.error.split)

